multiobj/solutions/Ter.5.4.1.00.3.out
1 4
4 0 2 1 3 
2021676 2021676 2021676 2021676 
